config:eval_tsp="2022-12-09 08:52:40"
config:arch=arch5
config:num_train_worker=3
config:num_sample_worker=1
config:sample_type=khop2
config:root_path=/nvme/graph-learning-copy/samgraph/
config:dataset=mag240m-homo
config:pipeline=False
config:cache_policy=coll_cache_asymm_link
config:cache_percentage=0.02
config:num_epoch=4
config:batch_size=2000
config:num_hidden=256
config:max_sampling_jobs=1
config:max_copying_jobs=1
config:barriered_epoch=1
config:presample_epoch=2
config:omp_thread_num=13
config:unsupervised=True
config:amp=True
config:rolling=0
config:fanout=[25, 10]
config:lr=0.003
config:dropout=0.5
config:single_gpu=False
config:max_num_step=1000
config:validate_configs=False
config:report_acc=0
config:dataset_path=/nvme/graph-learning-copy/samgraph/mag240m-homo
config:torch_thread_num=13
config:train_workers=['cuda:0', 'cuda:1', 'cuda:2']
config:sample_workers=['cuda:3']
config:num_fanout=2
config:num_layer=2
config:_run_mode=RunMode.FGNN
config:_log_level=warn
config:_profile_level=3
config:_empty_feat=25
config:_arch=5
config:_sample_type=5
config:_cache_policy=13
test_result:init:input_scale_factor=1.1
0 :  {link #0 : 1}, {link #1 : 2},
1 :  {link #0 : 2}, {link #1 : 0},
2 :  {link #0 : 0}, {link #1 : 1},
0 :  {link #0 : 1}, {link #1 : 2},
1 :  {link #0 : 2}, {link #1 : 0},
2 :  {link #0 : 0}, {link #1 : 1},
0 :  {link #0 : 1}, {link #1 : 2},
1 :  {link #0 : 2}, {link #1 : 0},
2 :  {link #0 : 0}, {link #1 : 1},
Set parameter WLSAccessID
Set parameter WLSSecret
Set parameter LicenseID
Set parameter TimeLimit to value 200
Set parameter MIPGap to value 0.05
Set parameter GomoryPasses to value 0
Set parameter Aggregate to value 0
Set parameter LogFile to value "cppsolver.log"
Set parameter Threads to value 26
Academic license - for non-commercial use only - registered to xiaoniu.sxn@sjtu.edu.cn
Gurobi Optimizer version 9.5.1 build v9.5.1rc2 (linux64)
Thread count: 40 physical cores, 80 logical processors, using up to 26 threads
Academic license - for non-commercial use only - registered to xiaoniu.sxn@sjtu.edu.cn
Optimize a model with 21393 rows, 10184 columns and 64149 nonzeros
Model fingerprint: 0x4704112b
Variable types: 4 continuous, 10180 integer (10180 binary)
Coefficient statistics:
  Matrix range     [6e-04, 5e+02]
  Objective range  [1e+00, 1e+00]
  Bounds range     [1e+00, 1e+00]
  RHS range        [1e+00, 5e+02]
Found heuristic solution: objective 22172.165765
Presolve removed 12218 rows and 0 columns
Presolve time: 0.09s
Presolved: 9175 rows, 10184 columns, 37679 nonzeros
Found heuristic solution: objective 22172.165749
Variable types: 4 continuous, 10180 integer (10180 binary)

Root relaxation: objective 1.058072e+04, 8021 iterations, 0.15 seconds (0.14 work units)

    Nodes    |    Current Node    |     Objective Bounds      |     Work
 Expl Unexpl |  Obj  Depth IntInf | Incumbent    BestBd   Gap | It/Node Time

     0     0 10580.7181    0   16 22172.1657 10580.7181  52.3%     -    0s
H    0     0                    10590.027166 10580.7181  0.09%     -    0s

Explored 1 nodes (10137 simplex iterations) in 0.55 seconds (0.39 work units)
Thread count was 26 (of 80 available processors)

Solution count 3: 10590 22172.2 22172.2 

Optimal solution found (tolerance 5.00e-02)
Best objective 1.059002716560e+04, best bound 1.058071806890e+04, gap 0.0879%
coll_cache:optimal_local_rate=0.187984,0.193782,0.186641,
coll_cache:optimal_remote_rate=0.380423,0.374625,0.381766,
coll_cache:optimal_cpu_rate=0.431593,0.431593,0.431593,
z=10590
test_result:init:feat_nbytes=375030526464
test_result:init:cache_nbytes=7531869696
test_result:init:feat_nbytes=375030526464
test_result:init:cache_nbytes=7527565824
test_result:init:feat_nbytes=375030526464
test_result:init:cache_nbytes=7538098176
